output/absorption_ilp.lp
Maximize
  0.00223680289380548 Z_160_0_0 + 0.00230407874865292 Z_160_0_1
   + 0.6885563940313963 Z_160_0_2 + 0.00433086930147781 Z_160_0_3
   + 0.2025718550246675 Z_160_0_4 + 7.4483328849490936e-04 Z_530_0_0
   + 9.6385024561671494e-04 Z_530_0_1 + 0.774094805635452 Z_530_0_2
   + 0.00166909861065983 Z_530_0_3 + 0.1225274122197765 Z_530_0_4
   + 2.0168844366239976e-04 Z_123_0_0 + 7.192462620995029e-04 Z_123_0_1
   + 0.7449398673805292 Z_123_0_2 + 5.5175972980495613e-04 Z_123_0_3
   + 0.1535874381839041 Z_123_0_4 + 2.9252222008052295e-04 Z_613_0_0
   + 3.757586814486343e-04 Z_613_0_1 + 0.8672802305009812 Z_613_0_2
   + 0.00115821081539254 Z_613_0_3 + 0.0308932777820971 Z_613_0_4
   + 3.896842881402184e-04 Z_200_0_0 + 6.3436950484509604e-04 Z_200_0_1
   + 0.5288140628773969 Z_200_0_2 + 0.00113028125382984 Z_200_0_3
   + 0.3690316020757879 Z_200_0_4
Subject To
 constraint1_1600: Z_160_0_0 + Z_160_0_1 + Z_160_0_2 + Z_160_0_3
   + Z_160_0_4 <= 1
 constraint1_5300: Z_530_0_0 + Z_530_0_1 + Z_530_0_2 + Z_530_0_3
   + Z_530_0_4 <= 1
 constraint1_1230: Z_123_0_0 + Z_123_0_1 + Z_123_0_2 + Z_123_0_3
   + Z_123_0_4 <= 1
 constraint1_6130: Z_613_0_0 + Z_613_0_1 + Z_613_0_2 + Z_613_0_3
   + Z_613_0_4 <= 1
 constraint1_2000: Z_200_0_0 + Z_200_0_1 + Z_200_0_2 + Z_200_0_3
   + Z_200_0_4 <= 1
 constraint2_1600: Z_160_0_0 <= 1
 constraint2_1601: Z_160_0_1 <= 1
 constraint2_1602: Z_160_0_2 <= 1
 constraint2_1603: Z_160_0_3 <= 1
 constraint2_5300: Z_530_0_0 <= 1
 constraint2_5301: Z_530_0_1 <= 1
 constraint2_5302: Z_530_0_2 <= 1
 constraint2_5303: Z_530_0_3 <= 1
 constraint2_1230: Z_123_0_0 <= 1
 constraint2_1231: Z_123_0_1 <= 1
 constraint2_1232: Z_123_0_2 <= 1
 constraint2_1233: Z_123_0_3 <= 1
 constraint2_6130: Z_613_0_0 <= 1
 constraint2_6131: Z_613_0_1 <= 1
 constraint2_6132: Z_613_0_2 <= 1
 constraint2_6133: Z_613_0_3 <= 1
 constraint2_2000: Z_200_0_0 <= 1
 constraint2_2001: Z_200_0_1 <= 1
 constraint2_2002: Z_200_0_2 <= 1
 constraint2_2003: Z_200_0_3 <= 1
Bounds
Binaries
 Z_160_0_0 Z_160_0_1 Z_160_0_2 Z_160_0_3 Z_160_0_4 Z_530_0_0 Z_530_0_1
 Z_530_0_2 Z_530_0_3 Z_530_0_4 Z_123_0_0 Z_123_0_1 Z_123_0_2 Z_123_0_3
 Z_123_0_4 Z_613_0_0 Z_613_0_1 Z_613_0_2 Z_613_0_3 Z_613_0_4 Z_200_0_0
 Z_200_0_1 Z_200_0_2 Z_200_0_3 Z_200_0_4
End
