output/absorption_ilp.mps
NAME absorption_srl_ilp
* Max problem is converted into Min one
ROWS
 N  OBJ
 L  constraint1_1600
 L  constraint1_5300
 L  constraint1_1230
 L  constraint1_6130
 L  constraint1_2000
 L  constraint2_1600
 L  constraint2_1601
 L  constraint2_1602
 L  constraint2_1603
 L  constraint2_5300
 L  constraint2_5301
 L  constraint2_5302
 L  constraint2_5303
 L  constraint2_1230
 L  constraint2_1231
 L  constraint2_1232
 L  constraint2_1233
 L  constraint2_6130
 L  constraint2_6131
 L  constraint2_6132
 L  constraint2_6133
 L  constraint2_2000
 L  constraint2_2001
 L  constraint2_2002
 L  constraint2_2003
COLUMNS
    MARKER    'MARKER'                 'INTORG'
    Z_160_0_0  OBJ       -2.2368028938054793e-03
    Z_160_0_0  constraint1_1600  1
    Z_160_0_0  constraint2_1600  1
    Z_160_0_1  OBJ       -2.3040787486529172e-03
    Z_160_0_1  constraint1_1600  1
    Z_160_0_1  constraint2_1601  1
    Z_160_0_2  OBJ       -6.8855639403139635e-01
    Z_160_0_2  constraint1_1600  1
    Z_160_0_2  constraint2_1602  1
    Z_160_0_3  OBJ       -4.3308693014778125e-03
    Z_160_0_3  constraint1_1600  1
    Z_160_0_3  constraint2_1603  1
    Z_160_0_4  OBJ       -2.0257185502466749e-01
    Z_160_0_4  constraint1_1600  1
    Z_530_0_0  OBJ       -7.4483328849490936e-04
    Z_530_0_0  constraint1_5300  1
    Z_530_0_0  constraint2_5300  1
    Z_530_0_1  OBJ       -9.6385024561671494e-04
    Z_530_0_1  constraint1_5300  1
    Z_530_0_1  constraint2_5301  1
    Z_530_0_2  OBJ       -7.7409480563545197e-01
    Z_530_0_2  constraint1_5300  1
    Z_530_0_2  constraint2_5302  1
    Z_530_0_3  OBJ       -1.6690986106598308e-03
    Z_530_0_3  constraint1_5300  1
    Z_530_0_3  constraint2_5303  1
    Z_530_0_4  OBJ       -1.2252741221977653e-01
    Z_530_0_4  constraint1_5300  1
    Z_123_0_0  OBJ       -2.0168844366239976e-04
    Z_123_0_0  constraint1_1230  1
    Z_123_0_0  constraint2_1230  1
    Z_123_0_1  OBJ       -7.1924626209950290e-04
    Z_123_0_1  constraint1_1230  1
    Z_123_0_1  constraint2_1231  1
    Z_123_0_2  OBJ       -7.4493986738052920e-01
    Z_123_0_2  constraint1_1230  1
    Z_123_0_2  constraint2_1232  1
    Z_123_0_3  OBJ       -5.5175972980495613e-04
    Z_123_0_3  constraint1_1230  1
    Z_123_0_3  constraint2_1233  1
    Z_123_0_4  OBJ       -1.5358743818390405e-01
    Z_123_0_4  constraint1_1230  1
    Z_613_0_0  OBJ       -2.9252222008052295e-04
    Z_613_0_0  constraint1_6130  1
    Z_613_0_0  constraint2_6130  1
    Z_613_0_1  OBJ       -3.7575868144863430e-04
    Z_613_0_1  constraint1_6130  1
    Z_613_0_1  constraint2_6131  1
    Z_613_0_2  OBJ       -8.6728023050098124e-01
    Z_613_0_2  constraint1_6130  1
    Z_613_0_2  constraint2_6132  1
    Z_613_0_3  OBJ       -1.1582108153925415e-03
    Z_613_0_3  constraint1_6130  1
    Z_613_0_3  constraint2_6133  1
    Z_613_0_4  OBJ       -3.0893277782097123e-02
    Z_613_0_4  constraint1_6130  1
    Z_200_0_0  OBJ       -3.8968428814021840e-04
    Z_200_0_0  constraint1_2000  1
    Z_200_0_0  constraint2_2000  1
    Z_200_0_1  OBJ       -6.3436950484509604e-04
    Z_200_0_1  constraint1_2000  1
    Z_200_0_1  constraint2_2001  1
    Z_200_0_2  OBJ       -5.2881406287739685e-01
    Z_200_0_2  constraint1_2000  1
    Z_200_0_2  constraint2_2002  1
    Z_200_0_3  OBJ       -1.1302812538298449e-03
    Z_200_0_3  constraint1_2000  1
    Z_200_0_3  constraint2_2003  1
    Z_200_0_4  OBJ       -3.6903160207578789e-01
    Z_200_0_4  constraint1_2000  1
    MARKER    'MARKER'                 'INTEND'
RHS
    RHS1      constraint1_1600  1
    RHS1      constraint1_5300  1
    RHS1      constraint1_1230  1
    RHS1      constraint1_6130  1
    RHS1      constraint1_2000  1
    RHS1      constraint2_1600  1
    RHS1      constraint2_1601  1
    RHS1      constraint2_1602  1
    RHS1      constraint2_1603  1
    RHS1      constraint2_5300  1
    RHS1      constraint2_5301  1
    RHS1      constraint2_5302  1
    RHS1      constraint2_5303  1
    RHS1      constraint2_1230  1
    RHS1      constraint2_1231  1
    RHS1      constraint2_1232  1
    RHS1      constraint2_1233  1
    RHS1      constraint2_6130  1
    RHS1      constraint2_6131  1
    RHS1      constraint2_6132  1
    RHS1      constraint2_6133  1
    RHS1      constraint2_2000  1
    RHS1      constraint2_2001  1
    RHS1      constraint2_2002  1
    RHS1      constraint2_2003  1
BOUNDS
 UP BND1      Z_160_0_0  1
 UP BND1      Z_160_0_1  1
 UP BND1      Z_160_0_2  1
 UP BND1      Z_160_0_3  1
 UP BND1      Z_160_0_4  1
 UP BND1      Z_530_0_0  1
 UP BND1      Z_530_0_1  1
 UP BND1      Z_530_0_2  1
 UP BND1      Z_530_0_3  1
 UP BND1      Z_530_0_4  1
 UP BND1      Z_123_0_0  1
 UP BND1      Z_123_0_1  1
 UP BND1      Z_123_0_2  1
 UP BND1      Z_123_0_3  1
 UP BND1      Z_123_0_4  1
 UP BND1      Z_613_0_0  1
 UP BND1      Z_613_0_1  1
 UP BND1      Z_613_0_2  1
 UP BND1      Z_613_0_3  1
 UP BND1      Z_613_0_4  1
 UP BND1      Z_200_0_0  1
 UP BND1      Z_200_0_1  1
 UP BND1      Z_200_0_2  1
 UP BND1      Z_200_0_3  1
 UP BND1      Z_200_0_4  1
ENDATA
